1 -1 -2 0
1 -1 3 0
1 -1 -4 0
1 -5 6 0
1 5 -7 0
1 5 -2 0
1 5 1 0
1 5 -8 0
1 9 -10 0
1 9 11 0
1 9 -12 0
1 9 7 0
1 9 -2 0
1 9 13 0
1 9 8 0
1 12 10 0
1 12 14 0
1 -12 7 0
1 -12 -2 0
1 12 -15 0
1 -12 -3 0
1 12 8 0
1 -2 16 0
1 2 -12 0
1 2 17 0
1 -2 -18 0
1 -2 9 0
1 2 1 0
1 2 -8 0
1 8 -19 0
1 -8 -12 0
1 -8 5 0
1 -8 17 0
1 8 18 0
1 8 -20 0
1 8 9 0
1 7 21 0
1 7 -17 0
1 -7 -22 0
1 -7 -23 0
1 -7 9 0
1 7 -1 0
1 3 -24 0
1 -3 -12 0
1 3 -5 0
1 3 -17 0
1 3 1 0
1 20 10 0
1 20 -15 0
1 20 23 0
1 -20 -8 0
1 16 -10 0
1 16 -11 0
1 -16 -20 0
1 -18 -10 0
1 18 11 0
1 -18 -25 0
1 18 26 0
1 -18 27 0
1 18 -28 0
1 -25 -10 0
1 -25 -15 0
1 -25 27 0
1 -25 -29 0
1 -25 -28 0
1 27 30 0
1 27 12 0
1 27 31 0
1 27 -32 0
1 27 -33 0
1 -27 -9 0
1 -11 -30 0
1 -11 34 0
1 -11 35 0
1 11 -33 0
1 -11 27 0
1 11 -36 0
1 -15 19 0
1 15 -16 0
1 -15 12 0
1 -15 31 0
1 15 37 0
1 -15 -38 0
1 15 17 0
1 15 -20 0
1 -10 19 0
1 -10 -16 0
1 10 12 0
1 -10 -9 0
1 33 -34 0
1 -33 -11 0
1 33 39 0
1 -33 27 0
1 -33 -29 0
1 -33 28 0
1 -34 11 0
1 -34 26 0
1 34 28 0
1 32 -30 0
1 32 11 0
1 -32 -26 0
1 -32 27 0
1 32 -29 0
1 -32 28 0
1 -30 -40 0
1 -30 -26 0
1 -30 -27 0
1 -28 -34 0
1 28 25 0
1 -28 -26 0
1 28 -41 0
1 28 -42 0
1 -26 34 0
1 26 43 0
1 26 -32 0
1 26 18 0
1 26 -28 0
1 29 -30 0
1 -29 44 0
1 -29 45 0
1 -29 31 0
1 -29 32 0
1 -29 -33 0
1 -29 -42 0
1 -29 -46 0
1 -29 36 0
1 -39 -25 0
1 -39 -44 0
1 39 31 0
1 -39 -32 0
1 -39 29 0
1 -39 -42 0
1 -4 -47 0
1 -4 48 0
1 -4 -49 0
1 6 -50 0
1 6 -47 0
1 -6 5 0
1 6 51 0
1 -6 -48 0
1 -6 52 0
1 -6 4 0
1 -13 -53 0
1 -13 -14 0
1 -13 -52 0
1 -13 -54 0
1 13 -9 0
1 -13 -55 0
1 14 -50 0
1 -14 -47 0
1 -14 -56 0
1 -14 52 0
1 14 -13 0
1 47 -57 0
1 -47 -21 0
1 -47 24 0
1 -47 -14 0
1 47 6 0
1 -47 52 0
1 -47 -23 0
1 47 13 0
1 -47 -4 0
1 52 47 0
1 -52 21 0
1 -52 -58 0
1 52 -59 0
1 52 -13 0
1 -52 4 0
1 50 60 0
1 -50 -6 0
1 -50 48 0
1 -50 -61 0
1 48 -62 0
1 -48 -63 0
1 48 14 0
1 48 -6 0
1 48 59 0
1 48 -61 0
1 48 64 0
1 48 13 0
1 23 -24 0
1 23 -53 0
1 23 7 0
1 23 -52 0
1 -23 -54 0
1 -23 65 0
1 23 64 0
1 23 -3 0
1 24 -47 0
1 24 -7 0
1 -24 -54 0
1 24 -65 0
1 22 53 0
1 -22 66 0
1 -22 7 0
1 22 52 0
1 -22 61 0
1 21 25 0
1 -21 67 0
1 21 66 0
1 21 7 0
1 -21 52 0
1 21 -54 0
1 21 -22 0
1 21 -3 0
1 53 68 0
1 53 -40 0
1 -53 21 0
1 -53 -24 0
1 -53 69 0
1 53 70 0
1 53 37 0
1 -53 22 0
1 -65 -68 0
1 65 24 0
1 -65 53 0
1 65 70 0
1 -65 71 0
1 56 -68 0
1 -56 -57 0
1 56 -70 0
1 56 54 0
1 56 59 0
1 -56 23 0
1 54 -56 0
1 -54 -24 0
1 -54 70 0
1 -54 59 0
1 -54 -13 0
1 -17 19 0
1 17 53 0
1 17 67 0
1 -17 66 0
1 -17 -15 0
1 17 -65 0
1 -17 -72 0
1 17 3 0
1 19 57 0
1 19 66 0
1 19 17 0
1 19 -65 0
1 19 3 0
1 19 -8 0
1 37 73 0
1 37 10 0
1 -37 -40 0
1 -37 53 0
1 37 74 0
1 -37 75 0
1 -37 15 0
1 -37 76 0
1 40 -30 0
1 -40 10 0
1 -40 -77 0
1 -40 -53 0
1 40 -67 0
1 -40 66 0
1 -40 75 0
1 -40 -37 0
1 -40 72 0
1 40 76 0
1 66 -40 0
1 66 17 0
1 66 22 0
1 -66 72 0
1 66 78 0
1 -66 -46 0
1 -72 -19 0
1 72 -66 0
1 72 79 0
1 -72 31 0
1 -72 -80 0
1 -72 -78 0
1 -67 19 0
1 -67 81 0
1 -67 -79 0
1 67 -82 0
1 -67 -70 0
1 67 37 0
1 67 -83 0
1 67 78 0
1 -67 84 0
1 83 -40 0
1 -83 -19 0
1 83 21 0
1 -83 -79 0
1 83 -70 0
1 83 17 0
1 -83 22 0
1 -83 -85 0
1 -83 78 0
1 -31 73 0
1 -31 10 0
1 -31 39 0
1 31 -66 0
1 -31 -74 0
1 31 -70 0
1 -31 15 0
1 -31 -75 0
1 31 -27 0
1 -31 76 0
1 -31 36 0
1 -36 -10 0
1 -36 73 0
1 36 -39 0
1 36 66 0
1 36 31 0
1 36 -72 0
1 36 -76 0
1 -45 -86 0
1 45 -66 0
1 45 -82 0
1 45 -75 0
1 45 -38 0
1 -45 87 0
1 -45 29 0
1 45 76 0
1 -46 73 0
1 46 -86 0
1 -46 39 0
1 -46 74 0
1 -46 38 0
1 46 -76 0
1 75 -44 0
1 -75 -31 0
1 75 -2 0
1 75 88 0
1 75 -37 0
1 75 -89 0
1 -75 -90 0
1 73 91 0
1 -73 40 0
1 73 37 0
1 -73 8 0
1 73 89 0
1 73 90 0
1 -73 -42 0
1 73 -46 0
1 73 36 0
1 -74 -40 0
1 74 45 0
1 -74 78 0
1 -74 -36 0
1 76 45 0
1 -76 74 0
1 76 -3 0
1 76 -92 0
1 76 36 0
1 -44 73 0
1 -44 35 0
1 -44 -26 0
1 44 79 0
1 -44 75 0
1 -44 38 0
1 44 87 0
1 -44 -28 0
1 -44 -42 0
1 42 86 0
1 -42 -26 0
1 -42 -44 0
1 -42 -75 0
1 -42 -87 0
1 -42 28 0
1 93 -43 0
1 -93 94 0
1 93 95 0
1 -93 -41 0
1 -90 73 0
1 90 35 0
1 90 -43 0
1 90 93 0
1 90 87 0
1 90 41 0
1 -87 -96 0
1 87 35 0
1 87 97 0
1 -87 -44 0
1 -87 -45 0
1 87 -98 0
1 87 27 0
1 87 -99 0
1 -87 100 0
1 -87 90 0
1 87 -42 0
1 87 46 0
1 35 96 0
1 -35 97 0
1 35 101 0
1 35 -44 0
1 35 -98 0
1 -35 -99 0
1 -35 87 0
1 35 102 0
1 35 -42 0
1 35 -46 0
1 38 -103 0
1 38 93 0
1 38 -44 0
1 -38 45 0
1 -38 104 0
1 38 90 0
1 -38 -42 0
1 38 -46 0
1 -86 10 0
1 86 -103 0
1 86 105 0
1 86 45 0
1 -86 -38 0
1 -86 104 0
1 86 90 0
1 86 42 0
1 -101 -106 0
1 101 43 0
1 101 105 0
1 -101 95 0
1 -102 -35 0
1 -102 106 0
1 -102 -101 0
1 -102 43 0
1 -102 41 0
1 97 35 0
1 97 106 0
1 97 103 0
1 -97 -95 0
1 -99 -97 0
1 -99 43 0
1 -99 104 0
1 -41 107 0
1 41 -101 0
1 41 43 0
1 41 99 0
1 -41 -28 0
1 -41 90 0
1 41 108 0
1 -43 -101 0
1 43 -102 0
1 -43 -90 0
1 43 -41 0
1 95 107 0
1 -95 -109 0
1 -95 -101 0
1 95 93 0
1 -95 -110 0
1 95 -111 0
1 95 98 0
1 -95 -99 0
1 95 29 0
1 -95 -102 0
1 -95 -112 0
1 95 90 0
1 -106 109 0
1 -106 -96 0
1 106 -39 0
1 -106 -97 0
1 106 -113 0
1 106 -93 0
1 106 -110 0
1 106 95 0
1 106 102 0
1 -106 90 0
1 49 -114 0
1 51 -6 0
1 51 49 0
1 55 115 0
1 55 116 0
1 55 117 0
1 -55 -118 0
1 -55 13 0
1 -55 -119 0
1 -55 -120 0
1 -121 115 0
1 121 117 0
1 121 -14 0
1 121 -55 0
1 122 -62 0
1 -122 63 0
1 -122 -121 0
1 122 51 0
1 -122 -61 0
1 -122 123 0
1 -122 55 0
1 116 122 0
1 -116 -62 0
1 -116 124 0
1 -116 121 0
1 116 -55 0
1 116 -49 0
1 125 -126 0
1 -125 121 0
1 -125 -51 0
1 125 127 0
1 125 -128 0
1 -125 -129 0
1 125 -55 0
1 -125 49 0
1 -115 130 0
1 115 -131 0
1 115 -126 0
1 115 51 0
1 115 -128 0
1 115 -129 0
1 115 55 0
1 115 -49 0
1 -64 63 0
1 -64 -117 0
1 64 -48 0
1 64 -122 0
1 -64 129 0
1 63 24 0
1 63 122 0
1 -61 132 0
1 -61 62 0
1 -61 -117 0
1 61 133 0
1 -61 -134 0
1 -61 -48 0
1 -61 122 0
1 61 128 0
1 -61 -119 0
1 -61 135 0
1 -62 -122 0
1 62 126 0
1 62 117 0
1 62 -48 0
1 62 -61 0
1 62 -135 0
1 119 62 0
1 119 -136 0
1 -119 -64 0
1 -133 -77 0
1 133 -57 0
1 133 -121 0
1 -133 137 0
1 -133 -136 0
1 -133 -138 0
1 133 61 0
1 133 -64 0
1 -118 -130 0
1 -118 62 0
1 118 -121 0
1 -118 -136 0
1 118 127 0
1 -118 -61 0
1 -118 -64 0
1 118 139 0
1 117 140 0
1 -117 130 0
1 117 121 0
1 -117 127 0
1 -117 61 0
1 117 55 0
1 -59 -50 0
1 -59 47 0
1 -59 -57 0
1 -59 133 0
1 -59 -134 0
1 -59 54 0
1 -59 17 0
1 59 -127 0
1 59 119 0
1 -59 135 0
1 57 -19 0
1 -57 -47 0
1 57 -56 0
1 -57 130 0
1 57 134 0
1 57 119 0
1 -138 77 0
1 -138 -56 0
1 138 -133 0
1 -138 -141 0
1 138 -58 0
1 138 142 0
1 -77 132 0
1 77 40 0
1 -77 140 0
1 77 133 0
1 -77 -134 0
1 77 143 0
1 77 -141 0
1 77 138 0
1 77 58 0
1 -77 119 0
1 -77 -135 0
1 -132 -68 0
1 -132 -144 0
1 132 57 0
1 -132 -82 0
1 132 143 0
1 -132 70 0
1 -143 -62 0
1 143 145 0
1 143 59 0
1 -143 146 0
1 143 -84 0
1 -135 -77 0
1 -135 147 0
1 135 -148 0
1 135 149 0
1 -135 -59 0
1 135 -61 0
1 -134 -57 0
1 134 62 0
1 -134 -148 0
1 -134 -138 0
1 134 146 0
1 70 68 0
1 -70 132 0
1 -70 60 0
1 70 -150 0
1 -70 -53 0
1 -70 -143 0
1 -70 58 0
1 70 -65 0
1 70 -83 0
1 -68 132 0
1 -68 151 0
1 68 -60 0
1 -68 143 0
1 68 -58 0
1 -68 -36 0
1 -82 150 0
1 -82 45 0
1 -82 -141 0
1 82 -58 0
1 82 152 0
1 -82 -71 0
1 -82 84 0
1 -84 -132 0
1 84 69 0
1 84 71 0
1 84 83 0
1 84 153 0
1 -150 -47 0
1 150 -154 0
1 150 94 0
1 150 79 0
1 150 70 0
1 -150 155 0
1 -150 -84 0
1 58 68 0
1 -58 -77 0
1 58 -94 0
1 58 79 0
1 -58 -52 0
1 -58 138 0
1 58 156 0
1 58 84 0
1 -60 68 0
1 -60 157 0
1 60 -158 0
1 -60 -159 0
1 60 148 0
1 -60 70 0
1 -60 -138 0
1 -60 -160 0
1 -141 -68 0
1 141 -60 0
1 141 158 0
1 141 148 0
1 141 138 0
1 141 -155 0
1 -141 146 0
1 -141 -84 0
1 -79 -69 0
1 -79 -44 0
1 79 148 0
1 -79 58 0
1 79 83 0
1 -79 72 0
1 -79 78 0
1 79 76 0
1 -78 150 0
1 78 161 0
1 78 67 0
1 78 -66 0
1 78 152 0
1 78 146 0
1 -78 -76 0
1 -94 -85 0
1 -94 161 0
1 -94 162 0
1 -94 -74 0
1 94 58 0
1 94 -71 0
1 -156 150 0
1 156 -161 0
1 156 69 0
1 156 -162 0
1 -156 74 0
1 156 71 0
1 -69 105 0
1 69 94 0
1 -69 89 0
1 69 156 0
1 -69 78 0
1 71 -163 0
1 71 -103 0
1 -71 -69 0
1 -71 -94 0
1 -71 -79 0
1 71 -164 0
1 71 65 0
1 71 -78 0
1 71 -84 0
1 -161 -165 0
1 -161 94 0
1 161 152 0
1 161 -155 0
1 -161 -156 0
1 161 78 0
1 161 84 0
1 152 -165 0
1 -152 94 0
1 152 -79 0
1 152 166 0
1 152 78 0
1 152 84 0
1 -105 86 0
1 -105 158 0
1 105 81 0
1 -105 162 0
1 105 75 0
1 -105 -38 0
1 -105 -85 0
1 -105 80 0
1 -105 -76 0
1 -89 75 0
1 89 71 0
1 -89 85 0
1 -89 -80 0
1 89 -76 0
1 -103 162 0
1 -103 71 0
1 -103 85 0
1 104 91 0
1 104 -81 0
1 -104 -167 0
1 104 166 0
1 104 -71 0
1 -104 -85 0
1 104 -92 0
1 -162 109 0
1 162 105 0
1 -162 -94 0
1 162 -66 0
1 -162 -104 0
1 162 -156 0
1 -80 -109 0
1 -80 96 0
1 80 -94 0
1 80 168 0
1 -80 -89 0
1 80 -72 0
1 -81 169 0
1 -81 -170 0
1 -81 -103 0
1 -81 85 0
1 81 -67 0
1 81 171 0
1 -81 -104 0
1 -81 -156 0
1 85 170 0
1 -85 -163 0
1 -85 -103 0
1 -85 105 0
1 -85 -172 0
1 85 104 0
1 85 -89 0
1 -85 -173 0
1 -96 -86 0
1 -96 -106 0
1 96 162 0
1 -96 -38 0
1 96 87 0
1 -96 95 0
1 -98 -91 0
1 98 86 0
1 -98 -96 0
1 98 35 0
1 98 -167 0
1 98 88 0
1 -98 -95 0
1 -98 -80 0
1 109 -91 0
1 -109 106 0
1 -109 111 0
1 -109 88 0
1 -109 -92 0
1 -111 -91 0
1 111 109 0
1 -111 162 0
1 -111 172 0
1 -111 -88 0
1 111 100 0
1 111 -95 0
1 111 -80 0
1 111 -92 0
1 88 91 0
1 88 109 0
1 -88 -96 0
1 -88 103 0
1 -88 -174 0
1 88 -75 0
1 -88 98 0
1 88 175 0
1 88 -176 0
1 -91 107 0
1 91 73 0
1 -91 109 0
1 91 -177 0
1 91 -88 0
1 91 104 0
1 -91 175 0
1 91 -176 0
1 -167 169 0
1 167 109 0
1 167 -96 0
1 -167 -178 0
1 -167 -168 0
1 -167 111 0
1 -167 179 0
1 167 98 0
1 167 -104 0
1 -167 -92 0
1 92 180 0
1 -92 169 0
1 -92 -181 0
1 -92 -167 0
1 92 98 0
1 -92 -104 0
1 -92 175 0
1 -92 182 0
1 107 -183 0
1 -107 -106 0
1 107 -43 0
1 107 110 0
1 110 -107 0
1 -110 183 0
1 110 -88 0
1 -110 -184 0
1 110 100 0
1 -176 -91 0
1 176 -183 0
1 -176 -185 0
1 -176 -174 0
1 -176 88 0
1 -176 -184 0
1 176 112 0
1 -174 -186 0
1 -174 113 0
1 174 -185 0
1 174 -184 0
1 174 -112 0
1 174 -176 0
1 -100 107 0
1 100 174 0
1 -100 110 0
1 100 111 0
1 100 -176 0
1 186 35 0
1 -186 187 0
1 -186 -188 0
1 -186 -174 0
1 -186 110 0
1 186 -111 0
1 186 -100 0
1 186 189 0
1 -184 -109 0
1 184 -174 0
1 -184 110 0
1 -184 -190 0
1 -184 191 0
1 184 -176 0
1 -183 -107 0
1 183 192 0
1 183 178 0
1 183 -110 0
1 183 191 0
1 183 -175 0
1 183 176 0
1 -193 113 0
1 -193 185 0
1 193 -194 0
1 193 100 0
1 193 112 0
1 -193 -108 0
1 194 186 0
1 194 112 0
1 -189 113 0
1 -189 -188 0
1 189 185 0
1 189 -112 0
1 -188 113 0
1 -188 -185 0
1 188 -100 0
1 -188 112 0
1 188 189 0
1 108 -195 0
1 -108 188 0
1 108 -185 0
1 108 194 0
1 108 176 0
1 185 108 0
1 -185 -188 0
1 -185 196 0
1 -185 -174 0
1 -185 197 0
1 -185 176 0
1 -112 195 0
1 -112 198 0
1 112 -187 0
1 -112 -188 0
1 112 174 0
1 -112 197 0
1 -112 95 0
1 112 193 0
1 -113 -198 0
1 -113 187 0
1 113 -188 0
1 113 -194 0
1 113 -197 0
1 113 -199 0
1 113 189 0
1 113 176 0
1 114 200 0
1 114 -201 0
1 114 -202 0
1 203 -51 0
1 -203 204 0
1 203 -114 0
1 -120 200 0
1 120 205 0
1 120 201 0
1 120 206 0
1 -120 -204 0
1 -120 202 0
1 -120 55 0
1 -120 -207 0
1 120 208 0
1 205 -200 0
1 -205 -121 0
1 -205 201 0
1 205 -202 0
1 -201 126 0
1 201 -209 0
1 -201 128 0
1 -201 202 0
1 -201 -120 0
1 -202 203 0
1 -202 210 0
1 200 211 0
1 -200 -120 0
1 -204 205 0
1 -204 -203 0
1 204 -212 0
1 -204 114 0
1 -129 -115 0
1 -129 -206 0
1 -129 -125 0
1 129 64 0
1 129 202 0
1 -129 -208 0
1 209 -63 0
1 -209 206 0
1 -209 213 0
1 209 -125 0
1 -209 -208 0
1 -128 214 0
1 128 115 0
1 128 201 0
1 -128 -206 0
1 128 125 0
1 -128 61 0
1 128 202 0
1 -128 -208 0
1 126 -214 0
1 -126 -62 0
1 126 -206 0
1 -126 -213 0
1 -126 -215 0
1 126 -216 0
1 126 -125 0
1 -126 128 0
1 213 209 0
1 213 217 0
1 213 -127 0
1 213 208 0
1 208 -218 0
1 -208 140 0
1 -208 -205 0
1 -208 213 0
1 208 -142 0
1 -208 -120 0
1 -206 -218 0
1 -206 209 0
1 -207 126 0
1 -207 -206 0
1 207 -129 0
1 127 -214 0
1 -127 219 0
1 -127 -130 0
1 -127 -116 0
1 127 -115 0
1 127 213 0
1 127 -215 0
1 -127 -216 0
1 127 125 0
1 127 -118 0
1 130 -213 0
1 130 216 0
1 130 125 0
1 130 122 0
1 -130 118 0
1 -130 208 0
1 142 -219 0
1 -142 -140 0
1 142 131 0
1 142 -215 0
1 142 -123 0
1 140 214 0
1 140 117 0
1 140 215 0
1 140 -142 0
1 216 219 0
1 -216 130 0
1 216 126 0
1 -216 142 0
1 216 -127 0
1 -216 220 0
1 -219 -140 0
1 -219 221 0
1 219 127 0
1 -219 128 0
1 -219 220 0
1 -215 222 0
1 -215 214 0
1 215 -140 0
1 -215 -126 0
1 215 -223 0
1 -215 224 0
1 -215 142 0
1 215 127 0
1 -214 -218 0
1 -214 225 0
1 -214 -215 0
1 214 -142 0
1 -214 -128 0
1 214 220 0
1 136 -219 0
1 136 124 0
1 -136 -117 0
1 136 -134 0
1 -136 217 0
1 -136 -119 0
1 -151 -219 0
1 151 131 0
1 -151 124 0
1 -151 117 0
1 -151 216 0
1 151 -118 0
1 -151 135 0
1 -149 -131 0
1 149 -134 0
1 149 216 0
1 149 -123 0
1 -149 139 0
1 149 -153 0
1 153 -222 0
1 -153 131 0
1 -153 226 0
1 153 134 0
1 153 149 0
1 -153 227 0
1 -153 123 0
1 153 228 0
1 153 -84 0
1 123 229 0
1 -123 -136 0
1 -123 -142 0
1 123 -230 0
1 123 -146 0
1 -124 -140 0
1 124 -231 0
1 124 -149 0
1 -124 230 0
1 124 -160 0
1 -124 -146 0
1 -227 -140 0
1 -227 -232 0
1 227 233 0
1 227 -234 0
1 -227 -235 0
1 227 -220 0
1 227 153 0
1 131 236 0
1 131 -232 0
1 131 223 0
1 -131 136 0
1 -131 142 0
1 131 -220 0
1 131 153 0
1 -148 60 0
1 148 124 0
1 -148 226 0
1 148 -137 0
1 148 134 0
1 -148 143 0
1 146 132 0
1 -146 -60 0
1 146 -124 0
1 -146 -226 0
1 -146 -137 0
1 146 134 0
1 146 141 0
1 146 123 0
1 -146 -139 0
1 -159 124 0
1 159 226 0
1 -159 -94 0
1 159 -137 0
1 159 233 0
1 -159 -237 0
1 159 145 0
1 -159 141 0
1 -159 123 0
1 -159 160 0
1 -159 228 0
1 -160 -60 0
1 -160 -124 0
1 -160 139 0
1 160 228 0
1 -160 -147 0
1 228 -158 0
1 228 159 0
1 228 137 0
1 228 148 0
1 228 -166 0
1 137 -238 0
1 -137 -133 0
1 -137 -148 0
1 137 -166 0
1 -137 160 0
1 137 228 0
1 137 146 0
1 -137 -153 0
1 139 238 0
1 -139 -239 0
1 139 159 0
1 -139 118 0
1 139 -149 0
1 139 230 0
1 139 160 0
1 -139 146 0
1 -226 -117 0
1 226 -232 0
1 -226 -148 0
1 226 -149 0
1 -226 -139 0
1 226 -240 0
1 -226 -241 0
1 -226 230 0
1 226 -160 0
1 -158 60 0
1 -158 232 0
1 -158 -137 0
1 -158 237 0
1 -158 58 0
1 -158 -152 0
1 -158 -155 0
1 158 147 0
1 -155 -60 0
1 -155 -150 0
1 -155 -161 0
1 155 158 0
1 -155 58 0
1 155 -152 0
1 155 89 0
1 -155 -228 0
1 155 147 0
1 165 -157 0
1 165 137 0
1 165 -237 0
1 -165 145 0
1 -165 -242 0
1 -165 166 0
1 165 -228 0
1 -165 147 0
1 166 157 0
1 -166 154 0
1 -166 165 0
1 166 137 0
1 -166 243 0
1 -166 -152 0
1 166 -104 0
1 -166 -147 0
1 -144 -170 0
1 144 -158 0
1 -144 -244 0
1 144 -172 0
1 -144 -164 0
1 144 -155 0
1 145 -170 0
1 -145 163 0
1 145 165 0
1 -145 159 0
1 -145 172 0
1 -145 155 0
1 145 160 0
1 147 245 0
1 -147 246 0
1 -147 -238 0
1 -147 -165 0
1 147 -237 0
1 -147 166 0
1 -147 -155 0
1 147 160 0
1 -237 247 0
1 -237 -238 0
1 -237 -159 0
1 -237 134 0
1 237 -248 0
1 -237 249 0
1 237 -240 0
1 237 160 0
1 237 -147 0
1 163 96 0
1 -163 -157 0
1 163 -238 0
1 163 -161 0
1 163 -154 0
1 -163 164 0
1 -163 85 0
1 164 144 0
1 164 154 0
1 -164 98 0
1 -164 243 0
1 -164 152 0
1 -164 -85 0
1 -170 109 0
1 170 157 0
1 -170 154 0
1 170 -250 0
1 170 -81 0
1 170 145 0
1 170 -172 0
1 170 -243 0
1 -170 -242 0
1 170 -251 0
1 170 85 0
1 172 -170 0
1 172 -157 0
1 172 -252 0
1 -172 250 0
1 172 -81 0
1 172 -145 0
1 172 111 0
1 172 242 0
1 -172 -251 0
1 172 85 0
1 -154 -169 0
1 154 163 0
1 154 -150 0
1 154 168 0
1 154 172 0
1 -154 -242 0
1 242 169 0
1 242 154 0
1 242 168 0
1 242 172 0
1 -242 -166 0
1 -242 -182 0
1 -157 60 0
1 -157 253 0
1 -157 165 0
1 157 254 0
1 157 -243 0
1 -157 164 0
1 243 -246 0
1 243 163 0
1 243 255 0
1 243 -164 0
1 -243 256 0
1 243 -166 0
1 -169 -107 0
1 169 246 0
1 169 252 0
1 169 81 0
1 169 167 0
1 -169 -257 0
1 169 85 0
1 168 169 0
1 -168 -81 0
1 168 167 0
1 168 251 0
1 -168 85 0
1 -168 80 0
1 182 -258 0
1 182 -154 0
1 182 -250 0
1 182 171 0
1 -182 -181 0
1 -182 -259 0
1 182 -257 0
1 182 -251 0
1 -182 -173 0
1 -182 260 0
1 182 176 0
1 -182 92 0
1 -181 -252 0
1 181 171 0
1 -181 174 0
1 181 -259 0
1 -181 -255 0
1 -181 -242 0
1 181 257 0
1 250 -170 0
1 250 251 0
1 -250 -69 0
1 -250 178 0
1 250 -181 0
1 -250 168 0
1 -250 261 0
1 250 191 0
1 -250 -175 0
1 -250 -182 0
1 -251 -262 0
1 -251 250 0
1 -251 168 0
1 251 -172 0
1 251 -261 0
1 -251 -191 0
1 252 170 0
1 252 -161 0
1 252 -263 0
1 252 -264 0
1 -252 -265 0
1 252 -254 0
1 252 -261 0
1 252 182 0
1 257 -169 0
1 257 170 0
1 257 -263 0
1 -257 265 0
1 -257 -254 0
1 -257 -168 0
1 257 172 0
1 257 152 0
1 -257 -266 0
1 -257 267 0
1 257 -182 0
1 175 183 0
1 -175 250 0
1 -175 -259 0
1 175 167 0
1 -175 -173 0
1 -175 260 0
1 175 92 0
1 -178 91 0
1 178 250 0
1 -178 171 0
1 178 254 0
1 178 -259 0
1 178 167 0
1 -178 88 0
1 -178 -260 0
1 -178 -251 0
1 178 -92 0
1 191 -183 0
1 191 -171 0
1 -191 184 0
1 191 -251 0
1 262 -177 0
1 262 -183 0
1 -262 250 0
1 -262 173 0
1 -262 -259 0
1 262 179 0
1 -262 184 0
1 262 260 0
1 -259 -198 0
1 -259 -187 0
1 259 -181 0
1 -259 268 0
1 259 260 0
1 -259 199 0
1 259 191 0
1 259 175 0
1 259 -182 0
1 260 187 0
1 260 -262 0
1 260 178 0
1 -260 181 0
1 -260 -269 0
1 -260 -199 0
1 -260 191 0
1 260 175 0
1 -260 -270 0
1 260 182 0
1 171 263 0
1 171 262 0
1 171 -271 0
1 171 272 0
1 -171 175 0
1 -171 182 0
1 -173 263 0
1 -173 262 0
1 -173 178 0
1 173 171 0
1 -173 -272 0
1 173 261 0
1 -173 -85 0
1 -173 191 0
1 -173 273 0
1 173 -182 0
1 -199 180 0
1 -199 -177 0
1 199 186 0
1 199 113 0
1 199 -187 0
1 -199 -179 0
1 -199 -274 0
1 -199 -184 0
1 -199 -112 0
1 -199 -261 0
1 199 260 0
1 187 -180 0
1 -187 177 0
1 187 259 0
1 -187 179 0
1 187 -274 0
1 -187 112 0
1 -187 -199 0
1 187 -260 0
1 -269 198 0
1 -269 -190 0
1 269 -112 0
1 198 -177 0
1 -198 275 0
1 198 -113 0
1 -198 276 0
1 198 -259 0
1 198 -277 0
1 198 112 0
1 -274 -278 0
1 -274 187 0
1 274 -279 0
1 -274 -199 0
1 177 -278 0
1 -177 -262 0
1 177 -279 0
1 -177 -280 0
1 177 274 0
1 177 -197 0
1 177 269 0
1 -179 278 0
1 -179 -180 0
1 179 -198 0
1 179 187 0
1 -179 -167 0
1 179 279 0
1 179 199 0
1 180 278 0
1 -180 281 0
1 180 -282 0
1 180 187 0
1 180 -279 0
1 197 177 0
1 -197 -195 0
1 197 192 0
1 -197 -276 0
1 -197 -113 0
1 -197 190 0
1 -197 -112 0
1 195 -192 0
1 195 -276 0
1 195 -113 0
1 -195 274 0
1 195 -197 0
1 -280 283 0
1 -280 192 0
1 280 284 0
1 280 -285 0
1 -280 -274 0
1 -280 190 0
1 283 -281 0
1 283 -177 0
1 283 -196 0
1 283 274 0
1 283 -190 0
1 283 286 0
1 277 195 0
1 -277 276 0
1 -277 -287 0
1 277 280 0
1 -277 -269 0
1 -277 -100 0
1 -277 -288 0
1 -276 -283 0
1 -276 -197 0
1 276 -277 0
1 190 278 0
1 -190 198 0
1 190 -289 0
1 -190 -184 0
1 -190 290 0
1 192 278 0
1 -192 -198 0
1 -192 289 0
1 -192 -197 0
1 -192 290 0
1 287 -196 0
1 -287 -279 0
1 287 -291 0
1 287 -286 0
1 292 -278 0
1 292 -284 0
1 -292 196 0
1 -292 287 0
1 -292 286 0
1 293 -284 0
1 293 196 0
1 -293 277 0
1 -293 291 0
1 293 286 0
1 288 276 0
1 288 196 0
1 -288 -286 0
1 -286 196 0
1 -286 280 0
1 286 -108 0
1 286 288 0
1 -286 292 0
1 196 283 0
1 -196 287 0
1 -196 280 0
1 196 286 0
1 -291 -284 0
1 291 -280 0
1 -291 292 0
1 -284 293 0
1 -284 -287 0
1 -284 291 0
1 284 292 0
1 217 -214 0
1 -217 294 0
1 -217 -206 0
1 -217 136 0
1 -217 215 0
1 218 -151 0
1 218 214 0
1 218 -213 0
1 218 215 0
1 218 212 0
1 218 -210 0
1 -218 -207 0
1 -218 -208 0
1 -225 -215 0
1 -225 -212 0
1 225 -210 0
1 -222 -294 0
1 222 295 0
1 -222 225 0
1 222 -296 0
1 222 212 0
1 -222 -210 0
1 -294 233 0
1 -294 201 0
1 294 297 0
1 -294 -217 0
1 210 -233 0
1 -210 -294 0
1 210 -225 0
1 210 217 0
1 -210 -298 0
1 211 225 0
1 211 212 0
1 -212 222 0
1 212 211 0
1 -212 299 0
1 -212 -217 0
1 -212 -204 0
1 -223 -300 0
1 223 131 0
1 -223 -295 0
1 223 -296 0
1 223 -215 0
1 -223 216 0
1 -223 -227 0
1 -223 210 0
1 223 220 0
1 220 300 0
1 220 -214 0
1 220 -131 0
1 220 -294 0
1 220 223 0
1 220 -296 0
1 -220 -227 0
1 220 -210 0
1 220 146 0
1 -220 -301 0
1 233 -159 0
1 -233 295 0
1 -233 296 0
1 -233 301 0
1 -235 300 0
1 235 221 0
1 -235 -302 0
1 235 160 0
1 -235 210 0
1 235 301 0
1 296 -303 0
1 296 -232 0
1 -296 233 0
1 -296 225 0
1 296 304 0
1 296 -305 0
1 -296 -241 0
1 296 230 0
1 296 235 0
1 -296 -220 0
1 300 306 0
1 300 -233 0
1 300 -223 0
1 300 225 0
1 300 -296 0
1 -300 230 0
1 300 235 0
1 -295 222 0
1 295 -233 0
1 -295 225 0
1 301 -303 0
1 -301 -225 0
1 301 -305 0
1 301 -220 0
1 -301 307 0
1 232 308 0
1 232 -131 0
1 232 224 0
1 232 -302 0
1 232 227 0
1 232 123 0
1 -230 300 0
1 -230 308 0
1 230 131 0
1 -230 124 0
1 230 -226 0
1 230 -232 0
1 -230 123 0
1 -230 -296 0
1 230 -155 0
1 239 -300 0
1 239 -308 0
1 -239 221 0
1 -239 -165 0
1 239 231 0
1 -239 224 0
1 239 -302 0
1 239 241 0
1 -241 -300 0
1 241 308 0
1 -241 -226 0
1 241 296 0
1 241 224 0
1 241 302 0
1 302 309 0
1 302 -239 0
1 302 -232 0
1 302 -233 0
1 302 -249 0
1 302 240 0
1 221 -247 0
1 -221 219 0
1 221 238 0
1 -221 -310 0
1 -221 -249 0
1 -221 -302 0
1 221 241 0
1 221 -230 0
1 -221 -235 0
1 -224 -309 0
1 -224 -311 0
1 224 -239 0
1 -224 232 0
1 224 312 0
1 -224 -241 0
1 224 -235 0
1 -308 -309 0
1 -308 -313 0
1 -308 -311 0
1 308 312 0
1 308 305 0
1 238 303 0
1 -238 236 0
1 -238 -231 0
1 238 137 0
1 -238 237 0
1 -238 302 0
1 238 229 0
1 238 228 0
1 -238 -147 0
1 -240 226 0
1 240 137 0
1 240 234 0
1 -247 -231 0
1 247 314 0
1 -247 -315 0
1 -247 -249 0
1 -247 302 0
1 247 229 0
1 -249 247 0
1 249 236 0
1 -249 231 0
1 249 315 0
1 249 237 0
1 -249 172 0
1 249 -302 0
1 249 -147 0
1 229 -238 0
1 -229 -231 0
1 -229 316 0
1 229 255 0
1 229 240 0
1 229 -123 0
1 -229 317 0
1 231 258 0
1 231 246 0
1 231 247 0
1 231 238 0
1 -231 -316 0
1 -231 -255 0
1 231 229 0
1 -231 317 0
1 -234 -309 0
1 -234 247 0
1 -234 238 0
1 234 236 0
1 -234 239 0
1 234 316 0
1 -234 318 0
1 -234 -312 0
1 234 -227 0
1 -234 -319 0
1 234 317 0
1 236 309 0
1 -236 247 0
1 236 131 0
1 -236 -320 0
1 -236 316 0
1 -236 318 0
1 -236 -249 0
1 236 -241 0
1 236 -317 0
1 246 169 0
1 246 144 0
1 -246 -309 0
1 246 -157 0
1 -246 229 0
1 -246 321 0
1 -244 157 0
1 244 -231 0
1 -244 -315 0
1 -244 168 0
1 -244 145 0
1 -244 312 0
1 244 243 0
1 244 321 0
1 244 -322 0
1 244 147 0
1 258 -314 0
1 258 255 0
1 258 -243 0
1 258 229 0
1 -258 -321 0
1 -258 322 0
1 258 182 0
1 -255 258 0
1 -255 323 0
1 -255 231 0
1 -255 314 0
1 255 -248 0
1 255 318 0
1 -255 243 0
1 255 -229 0
1 -255 322 0
1 322 258 0
1 322 247 0
1 -322 324 0
1 322 -265 0
1 -322 -254 0
1 322 -315 0
1 322 -255 0
1 -322 -249 0
1 -322 -267 0
1 322 -228 0
1 315 -258 0
1 -315 -246 0
1 315 -265 0
1 -315 254 0
1 -315 325 0
1 315 255 0
1 315 -249 0
1 315 -326 0
1 315 -267 0
1 -321 -258 0
1 -321 -314 0
1 -321 327 0
1 -321 255 0
1 321 244 0
1 -321 249 0
1 321 -328 0
1 321 -326 0
1 321 139 0
1 -314 246 0
1 314 -247 0
1 -314 324 0
1 -314 316 0
1 -314 -255 0
1 314 249 0
1 -314 -317 0
1 -254 245 0
1 -254 -157 0
1 -254 154 0
1 254 -252 0
1 254 178 0
1 -254 315 0
1 -254 316 0
1 -254 248 0
1 254 -329 0
1 -254 -243 0
1 -254 -322 0
1 -267 -245 0
1 -267 -323 0
1 -267 -330 0
1 -267 252 0
1 267 -315 0
1 267 329 0
1 -267 256 0
1 -267 -331 0
1 -267 191 0
1 -265 -245 0
1 -265 323 0
1 -265 -253 0
1 265 330 0
1 -265 -262 0
1 -265 -327 0
1 265 331 0
1 -265 322 0
1 323 258 0
1 323 144 0
1 323 332 0
1 323 275 0
1 -323 263 0
1 -323 -265 0
1 323 329 0
1 -323 333 0
1 -323 -272 0
1 -323 261 0
1 329 323 0
1 329 -275 0
1 329 -265 0
1 329 254 0
1 -329 334 0
1 -329 -333 0
1 -329 -261 0
1 329 267 0
1 245 -335 0
1 -245 336 0
1 245 337 0
1 -245 324 0
1 -245 265 0
1 -245 -326 0
1 245 -267 0
1 -245 147 0
1 -248 -258 0
1 248 338 0
1 248 -326 0
1 -248 267 0
1 -261 -323 0
1 -261 -171 0
1 -261 256 0
1 263 323 0
1 -263 251 0
1 -263 253 0
1 263 -187 0
1 -263 252 0
1 263 324 0
1 263 250 0
1 272 -323 0
1 -272 275 0
1 272 171 0
1 -272 -269 0
1 -272 331 0
1 -272 -339 0
1 -275 337 0
1 -275 -330 0
1 275 340 0
1 275 266 0
1 -330 -341 0
1 -330 281 0
1 -330 154 0
1 330 265 0
1 330 271 0
1 330 272 0
1 330 267 0
1 -331 341 0
1 331 281 0
1 -331 -275 0
1 -331 330 0
1 331 265 0
1 -331 -342 0
1 -331 285 0
1 331 242 0
1 -331 -272 0
1 -331 261 0
1 -331 -267 0
1 -253 157 0
1 253 -263 0
1 -253 343 0
1 253 -333 0
1 -253 272 0
1 253 261 0
1 253 267 0
1 256 -341 0
1 -256 344 0
1 -256 -253 0
1 -256 263 0
1 256 -272 0
1 -256 267 0
1 -271 180 0
1 -271 282 0
1 -271 264 0
1 271 -340 0
1 -271 259 0
1 -271 197 0
1 -271 -333 0
1 271 -331 0
1 -271 -266 0
1 -271 -173 0
1 271 -260 0
1 -282 180 0
1 282 -336 0
1 -282 -330 0
1 282 -340 0
1 -282 -171 0
1 282 -179 0
1 282 -266 0
1 282 -260 0
1 -285 -180 0
1 285 281 0
1 -285 264 0
1 285 -179 0
1 -285 -345 0
1 -285 -270 0
1 -281 344 0
1 -281 -330 0
1 281 -346 0
1 -281 -179 0
1 -281 -285 0
1 -281 266 0
1 -281 270 0
1 340 -278 0
1 340 -281 0
1 340 282 0
1 340 279 0
1 340 272 0
1 -345 -281 0
1 345 -282 0
1 -345 -340 0
1 345 279 0
1 345 -272 0
1 -345 251 0
1 -264 341 0
1 -264 281 0
1 264 252 0
1 -264 347 0
1 264 266 0
1 -266 282 0
1 266 264 0
1 -266 272 0
1 -266 348 0
1 -279 177 0
1 -279 -340 0
1 -279 -287 0
1 -279 179 0
1 279 273 0
1 -278 341 0
1 278 -192 0
1 278 340 0
1 278 346 0
1 278 268 0
1 278 -274 0
1 278 -345 0
1 -278 273 0
1 278 270 0
1 -289 -192 0
1 289 -345 0
1 -289 290 0
1 -290 192 0
1 290 -340 0
1 -290 -346 0
1 -290 -273 0
1 -290 -270 0
1 -268 278 0
1 268 281 0
1 -268 259 0
1 -268 279 0
1 -268 -285 0
1 268 290 0
1 -270 278 0
1 -270 281 0
1 270 289 0
1 -270 268 0
1 270 279 0
1 -270 285 0
1 270 290 0
1 -346 -171 0
1 -273 289 0
1 -273 279 0
1 -273 -285 0
1 -273 -173 0
1 273 -290 0
1 303 300 0
1 303 -297 0
1 303 305 0
1 303 299 0
1 303 298 0
1 -303 -301 0
1 -305 -300 0
1 -305 -349 0
1 -305 297 0
1 -305 296 0
1 -305 -299 0
1 -305 298 0
1 -311 306 0
1 -311 -247 0
1 -311 349 0
1 311 297 0
1 -311 -224 0
1 311 -350 0
1 311 -298 0
1 -350 -351 0
1 350 304 0
1 -350 -249 0
1 -350 -299 0
1 -297 -303 0
1 -297 294 0
1 -297 318 0
1 297 352 0
1 297 312 0
1 297 -305 0
1 -298 -303 0
1 -298 297 0
1 298 318 0
1 298 -312 0
1 298 353 0
1 349 311 0
1 -349 211 0
1 349 -350 0
1 -349 305 0
1 299 303 0
1 -299 -354 0
1 -309 224 0
1 309 304 0
1 309 -234 0
1 309 298 0
1 309 -307 0
1 312 -308 0
1 312 -309 0
1 312 221 0
1 312 -297 0
1 -312 244 0
1 312 -304 0
1 -312 224 0
1 312 302 0
1 355 313 0
1 -355 310 0
1 355 236 0
1 -355 356 0
1 -355 234 0
1 -355 298 0
1 355 -307 0
1 -318 355 0
1 318 -306 0
1 -318 313 0
1 -318 310 0
1 318 -236 0
1 -318 297 0
1 -318 -351 0
1 318 -357 0
1 -318 298 0
1 -304 355 0
1 -304 -309 0
1 304 -311 0
1 304 -358 0
1 304 327 0
1 304 312 0
1 304 359 0
1 304 350 0
1 304 360 0
1 304 317 0
1 -306 300 0
1 -306 361 0
1 -306 309 0
1 -306 327 0
1 306 -316 0
1 306 -304 0
1 -306 362 0
1 -306 317 0
1 351 -309 0
1 -351 -358 0
1 351 -318 0
1 -351 312 0
1 -351 363 0
1 351 362 0
1 -351 307 0
1 -307 -309 0
1 -307 -301 0
1 -307 358 0
1 -307 318 0
1 -307 -351 0
1 307 350 0
1 -317 -236 0
1 -317 -231 0
1 -317 -357 0
1 316 -310 0
1 -316 236 0
1 -316 231 0
1 316 -304 0
1 -316 -234 0
1 -316 229 0
1 -316 317 0
1 360 306 0
1 -360 -313 0
1 360 320 0
1 360 -364 0
1 360 -314 0
1 -360 327 0
1 -360 356 0
1 -360 -365 0
1 360 -321 0
1 -360 267 0
1 327 364 0
1 327 314 0
1 -327 -265 0
1 327 319 0
1 327 365 0
1 -327 -321 0
1 -356 355 0
1 356 -366 0
1 -356 324 0
1 -356 316 0
1 -356 318 0
1 -356 -302 0
1 356 339 0
1 356 -326 0
1 -356 360 0
1 -356 -317 0
1 310 -355 0
1 310 221 0
1 310 -367 0
1 310 -316 0
1 310 326 0
1 -310 -317 0
1 357 355 0
1 -357 313 0
1 357 -327 0
1 -357 316 0
1 357 318 0
1 357 -362 0
1 -313 355 0
1 313 308 0
1 -313 -358 0
1 313 -327 0
1 313 316 0
1 -313 -318 0
1 -313 -362 0
1 326 320 0
1 -326 324 0
1 326 364 0
1 326 -315 0
1 326 248 0
1 -326 365 0
1 326 -356 0
1 326 261 0
1 -326 321 0
1 324 310 0
1 324 -358 0
1 324 -364 0
1 -324 356 0
1 -324 -319 0
1 -324 326 0
1 -324 365 0
1 324 -321 0
1 324 322 0
1 339 -310 0
1 -339 -337 0
1 -339 -364 0
1 -339 368 0
1 339 325 0
1 -339 -328 0
1 337 -245 0
1 337 -275 0
1 337 369 0
1 337 -368 0
1 -337 325 0
1 -337 -356 0
1 -337 -328 0
1 337 370 0
1 -365 337 0
1 365 364 0
1 365 327 0
1 365 -229 0
1 -365 343 0
1 365 339 0
1 365 -326 0
1 364 336 0
1 364 337 0
1 364 324 0
1 -364 327 0
1 364 371 0
1 364 333 0
1 364 339 0
1 364 -365 0
1 319 372 0
1 319 -337 0
1 319 -324 0
1 319 -320 0
1 -319 -327 0
1 -319 373 0
1 -319 -326 0
1 -320 -374 0
1 320 372 0
1 320 236 0
1 -320 -327 0
1 320 371 0
1 320 375 0
1 320 373 0
1 320 -339 0
1 320 319 0
1 320 326 0
1 -320 -360 0
1 -333 245 0
1 333 323 0
1 333 253 0
1 333 336 0
1 -333 364 0
1 -333 368 0
1 333 325 0
1 333 329 0
1 333 -365 0
1 333 -328 0
1 -336 -245 0
1 -336 -323 0
1 336 282 0
1 336 376 0
1 336 368 0
1 336 256 0
1 336 -328 0
1 -336 -370 0
1 343 -344 0
1 -343 332 0
1 343 -253 0
1 -343 364 0
1 343 -334 0
1 -343 285 0
1 343 -256 0
1 -343 375 0
1 343 -365 0
1 -343 -370 0
1 344 -281 0
1 -344 -372 0
1 -344 -253 0
1 -344 -325 0
1 -344 -338 0
1 344 -334 0
1 344 343 0
1 370 -341 0
1 370 337 0
1 370 -342 0
1 -370 343 0
1 -370 339 0
1 370 322 0
1 370 -348 0
1 325 -341 0
1 325 -336 0
1 -325 -370 0
1 -325 -337 0
1 -325 -347 0
1 -325 -342 0
1 -325 333 0
1 325 -339 0
1 328 374 0
1 -328 -344 0
1 328 -377 0
1 328 321 0
1 368 -378 0
1 -368 -344 0
1 -368 371 0
1 -368 -343 0
1 342 334 0
1 -342 -331 0
1 -342 266 0
1 -342 -370 0
1 -341 332 0
1 -341 253 0
1 341 330 0
1 341 325 0
1 341 338 0
1 341 334 0
1 341 -256 0
1 341 -331 0
1 -341 -266 0
1 -347 -335 0
1 -347 332 0
1 -347 370 0
1 347 264 0
1 347 325 0
1 -347 289 0
1 347 -338 0
1 347 -334 0
1 -347 266 0
1 -348 -335 0
1 -348 -264 0
1 348 -347 0
1 -348 334 0
1 -348 290 0
1 348 -370 0
1 332 -323 0
1 -332 -347 0
1 -332 342 0
1 332 -334 0
1 -332 343 0
1 332 348 0
1 334 344 0
1 -334 -347 0
1 -334 -342 0
1 334 -343 0
1 -335 -245 0
1 -335 -344 0
1 -335 -338 0
1 335 343 0
1 -338 -335 0
1 -338 -248 0
1 338 347 0
1 -338 -348 0
1 362 -354 0
1 -362 313 0
1 362 -358 0
1 362 379 0
1 362 352 0
1 -362 -326 0
1 362 -353 0
1 358 313 0
1 -358 351 0
1 -358 357 0
1 358 -362 0
1 358 353 0
1 -380 -361 0
1 380 -352 0
1 380 -363 0
1 380 339 0
1 380 353 0
1 -369 -361 0
1 -369 313 0
1 369 -337 0
1 -369 352 0
1 369 -357 0
1 369 354 0
1 369 -353 0
1 -352 372 0
1 -352 -353 0
1 -352 -358 0
1 352 297 0
1 352 373 0
1 -352 -362 0
1 353 -372 0
1 353 -369 0
1 -353 352 0
1 353 375 0
1 -353 -373 0
1 353 -380 0
1 -353 -362 0
1 353 -298 0
1 -379 369 0
1 379 349 0
1 379 -362 0
1 -379 -354 0
1 354 -369 0
1 354 379 0
1 354 362 0
1 -373 -313 0
1 -373 310 0
1 -373 -376 0
1 -373 352 0
1 373 356 0
1 373 -319 0
1 -376 381 0
1 -376 361 0
1 -376 -313 0
1 376 336 0
1 376 -320 0
1 376 -352 0
1 376 363 0
1 376 359 0
1 376 357 0
1 -376 -319 0
1 -375 361 0
1 -375 372 0
1 -375 -382 0
1 -375 367 0
1 375 343 0
1 375 -366 0
1 -372 -381 0
1 -372 -367 0
1 372 320 0
1 372 -363 0
1 359 378 0
1 359 361 0
1 359 372 0
1 -359 -377 0
1 359 -371 0
1 -361 -378 0
1 -361 306 0
1 361 374 0
1 -361 -372 0
1 -361 -369 0
1 -361 -371 0
1 361 373 0
1 363 375 0
1 -381 -369 0
1 381 -363 0
1 371 -374 0
1 -371 -361 0
1 -371 -382 0
1 371 -367 0
1 -371 -320 0
1 371 364 0
1 -371 -368 0
1 -371 -366 0
1 -371 -319 0
1 371 -365 0
1 -374 -382 0
1 374 -367 0
1 374 -320 0
1 374 364 0
1 -374 -359 0
1 -374 -328 0
1 377 -378 0
1 377 -367 0
1 377 368 0
1 377 -359 0
1 377 366 0
1 -377 328 0
1 -378 -361 0
1 -378 -382 0
1 378 -367 0
1 -378 383 0
1 366 378 0
1 366 367 0
1 -366 377 0
1 366 -375 0
1 -367 -378 0
1 367 -374 0
1 -367 -310 0
1 -367 -377 0
1 367 371 0
1 367 366 0
1 -382 378 0
1 -382 -374 0
1 382 313 0
1 382 371 0
